g3 2 1 0	# problem inst_sans_ref
 64 217 1 0 54	# vars, constraints, objectives, ranges, eqns
 54 1	# nonlinear constraints, objectives
 0 0	# network constraints: nonlinear, linear
 10 10 10	# nonlinear vars in constraints, objectives, both
 0 0 0 1	# linear network variables; functions; arith, flags
 0 0 0 0 0	# discrete variables: binary, integer, nonlinear (b,c,o)
 554 64	# nonzeros in Jacobian, gradients
 0 0	# max name lengths: constraints, variables
 0 0 0 0 0	# common exprs: b,c,o,c1,o1
b
0 0 1
0 0 1
0 0 1
0 0 1
0 0 1
0 0 1
0 0 1
0 0 1
0 0 1
0 0 1
0 0 1
0 0 1
0 0 1
0 0 1
0 0 1
0 0 1
0 0 1
0 0 1
0 0 1
0 0 1
0 0 1
0 0 1
0 0 1
0 0 1
0 0 1
0 0 1
0 0 1
0 0 1
0 0 1
0 0 1
0 0 1
0 0 1
0 0 1
0 0 1
0 0 1
0 0 1
0 0 1
0 0 1
0 0 1
0 0 1
0 0 1
0 0 1
0 0 1
0 0 1
0 0 1
0 0 1
0 0 1
0 0 1
0 0 1
0 0 1
0 0 1
0 0 1
0 0 1
0 0 1
0 0 1
0 0 1
0 0 1
0 0 1
0 0 1
0 0 1
0 0 1
0 0 1
0 0 1
0 0 1
r
4 0
4 0
4 0
4 0
4 0
4 0
4 0
4 0
4 0
4 0
4 0
4 0
4 0
4 0
4 0
4 0
4 0
4 0
4 0
4 0
4 0
4 0
4 0
4 0
4 0
4 0
4 0
4 0
4 0
4 0
4 0
4 0
4 0
4 0
4 0
4 0
4 0
4 0
4 0
4 0
4 0
4 0
4 0
4 0
4 0
4 0
4 0
4 0
4 0
4 0
4 0
4 0
4 0
4 0
1 4.29
1 0
1 0
1 0
1 0
1 0
1 0
1 0
1 0
1 0
1 0
1 0
1 0
1 0
1 0
1 0
1 0
1 0
1 0
1 0
1 0
1 0
1 0
1 0
1 0
1 0
1 0
1 0
1 0
1 0
1 0
1 0
1 0
1 0
1 0
1 0
1 0
1 0
1 0
1 0
1 0
1 0
1 0
1 0
1 0
1 0
1 0
1 0
1 0
1 0
1 0
1 0
1 0
1 0
1 0
1 0
1 0
1 0
1 0
1 0
1 0
1 0
1 0
1 0
1 0
1 0
1 0
1 0
1 0
1 0
1 0
1 0
1 0
1 0
1 0
1 0
1 0
1 0
1 0
1 0
1 0
1 0
1 0
1 0
1 0
1 0
1 0
1 0
1 0
1 0
1 0
1 0
1 0
1 0
1 0
1 0
1 0
1 0
1 0
2 -1
2 -1
2 -1
2 -1
2 -1
2 -1
2 -1
2 -1
2 -1
2 -1
2 -1
2 -1
2 -1
2 -1
2 -1
2 -1
2 -1
2 -1
2 -1
2 -1
2 -1
2 -1
2 -1
2 -1
2 -1
2 -1
2 -1
2 -1
2 -1
2 -1
2 -1
2 -1
2 -1
2 -1
2 -1
2 -1
2 -1
2 -1
2 -1
2 -1
2 -1
2 -1
2 -1
2 -1
2 -1
2 -1
2 -1
2 -1
2 -1
2 -1
2 -1
2 -1
2 -1
2 -1
2 0
2 0
2 0
2 0
2 0
2 0
2 0
2 0
2 0
2 0
C0
o16
o2
v0
v0
C1
o16
o2
v0
v1
C2
o16
o2
v0
v2
C3
o16
o2
v0
v3
C4
o16
o2
v0
v4
C5
o16
o2
v0
v5
C6
o16
o2
v0
v6
C7
o16
o2
v0
v7
C8
o16
o2
v0
v8
C9
o16
o2
v0
v9
C10
o16
o2
v1
v1
C11
o16
o2
v1
v2
C12
o16
o2
v1
v3
C13
o16
o2
v1
v5
C14
o16
o2
v1
v6
C15
o16
o2
v1
v7
C16
o16
o2
v1
v8
C17
o16
o2
v1
v9
C18
o16
o2
v2
v2
C19
o16
o2
v2
v3
C20
o16
o2
v2
v4
C21
o16
o2
v2
v5
C22
o16
o2
v2
v6
C23
o16
o2
v2
v7
C24
o16
o2
v2
v8
C25
o16
o2
v2
v9
C26
o16
o2
v3
v3
C27
o16
o2
v3
v4
C28
o16
o2
v3
v5
C29
o16
o2
v3
v6
C30
o16
o2
v3
v7
C31
o16
o2
v3
v8
C32
o16
o2
v3
v9
C33
o16
o2
v4
v4
C34
o16
o2
v4
v5
C35
o16
o2
v4
v6
C36
o16
o2
v4
v7
C37
o16
o2
v4
v8
C38
o16
o2
v4
v9
C39
o16
o2
v5
v5
C40
o16
o2
v5
v6
C41
o16
o2
v5
v7
C42
o16
o2
v5
v8
C43
o16
o2
v5
v9
C44
o16
o2
v6
v6
C45
o16
o2
v6
v7
C46
o16
o2
v6
v8
C47
o16
o2
v6
v9
C48
o16
o2
v7
v7
C49
o16
o2
v7
v8
C50
o16
o2
v7
v9
C51
o16
o2
v8
v8
C52
o16
o2
v8
v9
C53
o16
o2
v9
v9
C54
n0
C55
n0
C56
n0
C57
n0
C58
n0
C59
n0
C60
n0
C61
n0
C62
n0
C63
n0
C64
n0
C65
n0
C66
n0
C67
n0
C68
n0
C69
n0
C70
n0
C71
n0
C72
n0
C73
n0
C74
n0
C75
n0
C76
n0
C77
n0
C78
n0
C79
n0
C80
n0
C81
n0
C82
n0
C83
n0
C84
n0
C85
n0
C86
n0
C87
n0
C88
n0
C89
n0
C90
n0
C91
n0
C92
n0
C93
n0
C94
n0
C95
n0
C96
n0
C97
n0
C98
n0
C99
n0
C100
n0
C101
n0
C102
n0
C103
n0
C104
n0
C105
n0
C106
n0
C107
n0
C108
n0
C109
n0
C110
n0
C111
n0
C112
n0
C113
n0
C114
n0
C115
n0
C116
n0
C117
n0
C118
n0
C119
n0
C120
n0
C121
n0
C122
n0
C123
n0
C124
n0
C125
n0
C126
n0
C127
n0
C128
n0
C129
n0
C130
n0
C131
n0
C132
n0
C133
n0
C134
n0
C135
n0
C136
n0
C137
n0
C138
n0
C139
n0
C140
n0
C141
n0
C142
n0
C143
n0
C144
n0
C145
n0
C146
n0
C147
n0
C148
n0
C149
n0
C150
n0
C151
n0
C152
n0
C153
n0
C154
n0
C155
n0
C156
n0
C157
n0
C158
n0
C159
n0
C160
n0
C161
n0
C162
n0
C163
n0
C164
n0
C165
n0
C166
n0
C167
n0
C168
n0
C169
n0
C170
n0
C171
n0
C172
n0
C173
n0
C174
n0
C175
n0
C176
n0
C177
n0
C178
n0
C179
n0
C180
n0
C181
n0
C182
n0
C183
n0
C184
n0
C185
n0
C186
n0
C187
n0
C188
n0
C189
n0
C190
n0
C191
n0
C192
n0
C193
n0
C194
n0
C195
n0
C196
n0
C197
n0
C198
n0
C199
n0
C200
n0
C201
n0
C202
n0
C203
n0
C204
n0
C205
n0
C206
n0
C207
n0
C208
n0
C209
n0
C210
n0
C211
n0
C212
n0
C213
n0
C214
n0
C215
n0
C216
n0
O0 0
o54
100
o2
o2
n3.643646
v0
v0
o2
o2
n0.002816
v0
v1
o2
o2
n-0.001078
v0
v2
o2
o2
n-0.010751
v0
v3
o2
o2
n0.00275
v0
v4
o2
o2
n-0.461841
v0
v5
o2
o2
n-0.859379
v0
v6
o2
o2
n-0.274416
v0
v7
o2
o2
n0.879534
v0
v8
o2
o2
n-0.37774
v0
v9
o2
o2
n0.002816
v1
v0
o2
o2
n3.929109
v1
v1
o2
o2
n-0.000759
v1
v2
o2
o2
n-0.009227
v1
v3
o2
o2
n7.4e-05
v1
v4
o2
o2
n-0.331877
v1
v5
o2
o2
n0.571398
v1
v6
o2
o2
n0.788159
v1
v7
o2
o2
n0.137886
v1
v8
o2
o2
n0.559916
v1
v9
o2
o2
n-0.001078
v2
v0
o2
o2
n-0.000759
v2
v1
o2
o2
n1.164727
v2
v2
o2
o2
n0.004261
v2
v3
o2
o2
n-0.00073
v2
v4
o2
o2
n-0.147602
v2
v5
o2
o2
n-0.110535
v2
v6
o2
o2
n-0.70854
v2
v7
o2
o2
n-0.364191
v2
v8
o2
o2
n-0.084274
v2
v9
o2
o2
n-0.010751
v3
v0
o2
o2
n-0.009227
v3
v1
o2
o2
n0.004261
v3
v2
o2
o2
n1.97323
v3
v3
o2
o2
n-0.009082
v3
v4
o2
o2
n0.897951
v3
v5
o2
o2
n0.049645
v3
v6
o2
o2
n-0.618313
v3
v7
o2
o2
n0.243084
v3
v8
o2
o2
n-0.600939
v3
v9
o2
o2
n0.00275
v4
v0
o2
o2
n7.4e-05
v4
v1
o2
o2
n-0.00073
v4
v2
o2
o2
n-0.009082
v4
v3
o2
o2
n2.081941
v4
v4
o2
o2
n-0.012237
v4
v5
o2
o2
n-0.403634
v4
v6
o2
o2
n0.753128
v4
v7
o2
o2
n0.447936
v4
v8
o2
o2
n0.234989
v4
v9
o2
o2
n-0.461841
v5
v0
o2
o2
n-0.331877
v5
v1
o2
o2
n-0.147602
v5
v2
o2
o2
n0.897951
v5
v3
o2
o2
n-0.012237
v5
v4
o2
o2
n0.582496
v5
v5
o2
o2
n0.009079
v5
v6
o2
o2
n-0.025883
v5
v7
o2
o2
n-0.013679
v5
v8
o2
o2
n-0.017711
v5
v9
o2
o2
n-0.859379
v6
v0
o2
o2
n0.571398
v6
v1
o2
o2
n-0.110535
v6
v2
o2
o2
n0.049645
v6
v3
o2
o2
n-0.403634
v6
v4
o2
o2
n0.009079
v6
v5
o2
o2
n1.716677
v6
v6
o2
o2
n-0.002194
v6
v7
o2
o2
n-0.000313
v6
v8
o2
o2
n-0.001361
v6
v9
o2
o2
n-0.274416
v7
v0
o2
o2
n0.788159
v7
v1
o2
o2
n-0.70854
v7
v2
o2
o2
n-0.618313
v7
v3
o2
o2
n0.753128
v7
v4
o2
o2
n-0.025883
v7
v5
o2
o2
n-0.002194
v7
v6
o2
o2
n2.483962
v7
v7
o2
o2
n0.003317
v7
v8
o2
o2
n0.001876
v7
v9
o2
o2
n0.879534
v8
v0
o2
o2
n0.137886
v8
v1
o2
o2
n-0.364191
v8
v2
o2
o2
n0.243084
v8
v3
o2
o2
n0.447936
v8
v4
o2
o2
n-0.013679
v8
v5
o2
o2
n-0.000313
v8
v6
o2
o2
n0.003317
v8
v7
o2
o2
n0.746079
v8
v8
o2
o2
n0.002057
v8
v9
o2
o2
n-0.37774
v9
v0
o2
o2
n0.559916
v9
v1
o2
o2
n-0.084274
v9
v2
o2
o2
n-0.600939
v9
v3
o2
o2
n0.234989
v9
v4
o2
o2
n-0.017711
v9
v5
o2
o2
n-0.001361
v9
v6
o2
o2
n0.001876
v9
v7
o2
o2
n0.002057
v9
v8
o2
o2
n2.891277
v9
v9
k63
32
60
92
124
153
185
217
249
281
313
317
321
325
329
333
338
343
348
353
358
362
366
370
375
380
385
390
395
399
403
407
412
417
422
427
432
436
440
445
450
455
460
465
469
474
479
484
489
494
498
502
506
510
514
518
522
526
530
534
538
542
546
550
J0 2
0 0
10 1
J1 3
0 0
1 0
11 1
J2 3
0 0
2 0
12 1
J3 3
0 0
3 0
13 1
J4 3
0 0
4 0
14 1
J5 3
0 0
5 0
15 1
J6 3
0 0
6 0
16 1
J7 3
0 0
7 0
17 1
J8 3
0 0
8 0
18 1
J9 3
0 0
9 0
19 1
J10 2
1 0
20 1
J11 3
1 0
2 0
21 1
J12 3
1 0
3 0
22 1
J13 3
1 0
5 0
23 1
J14 3
1 0
6 0
24 1
J15 3
1 0
7 0
25 1
J16 3
1 0
8 0
26 1
J17 3
1 0
9 0
27 1
J18 2
2 0
28 1
J19 3
2 0
3 0
29 1
J20 3
2 0
4 0
30 1
J21 3
2 0
5 0
31 1
J22 3
2 0
6 0
32 1
J23 3
2 0
7 0
33 1
J24 3
2 0
8 0
34 1
J25 3
2 0
9 0
35 1
J26 2
3 0
36 1
J27 3
3 0
4 0
37 1
J28 3
3 0
5 0
38 1
J29 3
3 0
6 0
39 1
J30 3
3 0
7 0
40 1
J31 3
3 0
8 0
41 1
J32 3
3 0
9 0
42 1
J33 2
4 0
43 1
J34 3
4 0
5 0
44 1
J35 3
4 0
6 0
45 1
J36 3
4 0
7 0
46 1
J37 3
4 0
8 0
47 1
J38 3
4 0
9 0
48 1
J39 2
5 0
49 1
J40 3
5 0
6 0
50 1
J41 3
5 0
7 0
51 1
J42 3
5 0
8 0
52 1
J43 3
5 0
9 0
53 1
J44 2
6 0
54 1
J45 3
6 0
7 0
55 1
J46 3
6 0
8 0
56 1
J47 3
6 0
9 0
57 1
J48 2
7 0
58 1
J49 3
7 0
8 0
59 1
J50 3
7 0
9 0
60 1
J51 2
8 0
61 1
J52 3
8 0
9 0
62 1
J53 2
9 0
63 1
J54 34
0 0.31
2 0.93
3 -0.11
4 0.69
5 0.59
6 0.52
7 -0.62
8 -0.12
9 0.44
15 -1.9
16 -0.58
17 1.4
18 -0.17
19 0.61
23 1.86
24 -0.34
25 -0.79
26 -1.68
27 0.33
31 -0.6
32 -1.48
33 0.16
34 -1.66
35 1.85
38 1.28
39 1.26
40 -0.41
41 1.85
42 -0.15
44 0.27
45 1.8
46 -0.56
47 -1.52
48 0.09
J55 2
0 -1
10 1
J56 2
0 -1
11 1
J57 2
0 -1
12 1
J58 2
0 -1
13 1
J59 2
0 -1
14 1
J60 2
0 -1
15 1
J61 2
0 -1
16 1
J62 2
0 -1
17 1
J63 2
0 -1
18 1
J64 2
0 -1
19 1
J65 2
1 -1
20 1
J66 2
1 -1
21 1
J67 2
1 -1
22 1
J68 2
1 -1
23 1
J69 2
1 -1
24 1
J70 2
1 -1
25 1
J71 2
1 -1
26 1
J72 2
1 -1
27 1
J73 2
2 -1
28 1
J74 2
2 -1
29 1
J75 2
2 -1
30 1
J76 2
2 -1
31 1
J77 2
2 -1
32 1
J78 2
2 -1
33 1
J79 2
2 -1
34 1
J80 2
2 -1
35 1
J81 2
3 -1
36 1
J82 2
3 -1
37 1
J83 2
3 -1
38 1
J84 2
3 -1
39 1
J85 2
3 -1
40 1
J86 2
3 -1
41 1
J87 2
3 -1
42 1
J88 2
4 -1
43 1
J89 2
4 -1
44 1
J90 2
4 -1
45 1
J91 2
4 -1
46 1
J92 2
4 -1
47 1
J93 2
4 -1
48 1
J94 2
5 -1
49 1
J95 2
5 -1
50 1
J96 2
5 -1
51 1
J97 2
5 -1
52 1
J98 2
5 -1
53 1
J99 2
6 -1
54 1
J100 2
6 -1
55 1
J101 2
6 -1
56 1
J102 2
6 -1
57 1
J103 2
7 -1
58 1
J104 2
7 -1
59 1
J105 2
7 -1
60 1
J106 2
8 -1
61 1
J107 2
8 -1
62 1
J108 2
9 -1
63 1
J109 2
1 -1
11 1
J110 2
2 -1
12 1
J111 2
3 -1
13 1
J112 2
4 -1
14 1
J113 2
5 -1
15 1
J114 2
6 -1
16 1
J115 2
7 -1
17 1
J116 2
8 -1
18 1
J117 2
9 -1
19 1
J118 2
2 -1
21 1
J119 2
3 -1
22 1
J120 2
5 -1
23 1
J121 2
6 -1
24 1
J122 2
7 -1
25 1
J123 2
8 -1
26 1
J124 2
9 -1
27 1
J125 2
3 -1
29 1
J126 2
4 -1
30 1
J127 2
5 -1
31 1
J128 2
6 -1
32 1
J129 2
7 -1
33 1
J130 2
8 -1
34 1
J131 2
9 -1
35 1
J132 2
4 -1
37 1
J133 2
5 -1
38 1
J134 2
6 -1
39 1
J135 2
7 -1
40 1
J136 2
8 -1
41 1
J137 2
9 -1
42 1
J138 2
5 -1
44 1
J139 2
6 -1
45 1
J140 2
7 -1
46 1
J141 2
8 -1
47 1
J142 2
9 -1
48 1
J143 2
6 -1
50 1
J144 2
7 -1
51 1
J145 2
8 -1
52 1
J146 2
9 -1
53 1
J147 2
7 -1
55 1
J148 2
8 -1
56 1
J149 2
9 -1
57 1
J150 2
8 -1
59 1
J151 2
9 -1
60 1
J152 2
9 -1
62 1
J153 2
0 -2
10 1
J154 3
0 -1
1 -1
11 1
J155 3
0 -1
2 -1
12 1
J156 3
0 -1
3 -1
13 1
J157 3
0 -1
4 -1
14 1
J158 3
0 -1
5 -1
15 1
J159 3
0 -1
6 -1
16 1
J160 3
0 -1
7 -1
17 1
J161 3
0 -1
8 -1
18 1
J162 3
0 -1
9 -1
19 1
J163 2
1 -2
20 1
J164 3
1 -1
2 -1
21 1
J165 3
1 -1
3 -1
22 1
J166 3
1 -1
5 -1
23 1
J167 3
1 -1
6 -1
24 1
J168 3
1 -1
7 -1
25 1
J169 3
1 -1
8 -1
26 1
J170 3
1 -1
9 -1
27 1
J171 2
2 -2
28 1
J172 3
2 -1
3 -1
29 1
J173 3
2 -1
4 -1
30 1
J174 3
2 -1
5 -1
31 1
J175 3
2 -1
6 -1
32 1
J176 3
2 -1
7 -1
33 1
J177 3
2 -1
8 -1
34 1
J178 3
2 -1
9 -1
35 1
J179 2
3 -2
36 1
J180 3
3 -1
4 -1
37 1
J181 3
3 -1
5 -1
38 1
J182 3
3 -1
6 -1
39 1
J183 3
3 -1
7 -1
40 1
J184 3
3 -1
8 -1
41 1
J185 3
3 -1
9 -1
42 1
J186 2
4 -2
43 1
J187 3
4 -1
5 -1
44 1
J188 3
4 -1
6 -1
45 1
J189 3
4 -1
7 -1
46 1
J190 3
4 -1
8 -1
47 1
J191 3
4 -1
9 -1
48 1
J192 2
5 -2
49 1
J193 3
5 -1
6 -1
50 1
J194 3
5 -1
7 -1
51 1
J195 3
5 -1
8 -1
52 1
J196 3
5 -1
9 -1
53 1
J197 2
6 -2
54 1
J198 3
6 -1
7 -1
55 1
J199 3
6 -1
8 -1
56 1
J200 3
6 -1
9 -1
57 1
J201 2
7 -2
58 1
J202 3
7 -1
8 -1
59 1
J203 3
7 -1
9 -1
60 1
J204 2
8 -2
61 1
J205 3
8 -1
9 -1
62 1
J206 2
9 -2
63 1
J207 2
0 -1
10 1
J208 2
1 -1
20 1
J209 2
2 -1
28 1
J210 2
3 -1
36 1
J211 2
4 -1
43 1
J212 2
5 -1
49 1
J213 2
6 -1
54 1
J214 2
7 -1
58 1
J215 2
8 -1
61 1
J216 2
9 -1
63 1
G0 64
0 -0.63
1 0.15
2 0.59
3 0.32
4 0.97
5 -0.05
6 0.11
7 0.66
8 -0.59
9 -0.81
10 -3.643646
11 -0.005631
12 0.002156
13 0.021501
14 -0.0055
15 -0.036318
16 -0.001242
17 0.008833
18 0.000932
19 0.005481
20 -3.929109
21 0.001517
22 0.018454
23 -0.036245
24 -0.002796
25 0.003682
26 0.004228
27 0.000168
28 -1.164727
29 -0.008521
30 0.00146
31 0.015205
32 0.00107
33 -0.00292
34 -0.001618
35 -0.001451
36 -1.97323
37 0.018164
38 0.074098
39 0.01071
40 -0.023375
41 -0.016167
42 -0.018122
43 -2.081941
44 -0.035526
45 -0.002731
46 0.003743
47 0.004129
48 2.1e-05
49 -0.582496
50 -0.018158
51 0.051767
52 0.027358
53 0.035422
54 -1.716677
55 0.004389
56 0.000627
57 0.002721
58 -2.483962
59 -0.006633
60 -0.003751
61 -0.746079
62 -0.004114
63 -2.891277
